<?xml version = "1.0" encoding="UTF-8" standalone="yes"?>
<CPLEXSolution version="1.2">
 <header
   problemName="TSP model version 1"
   solutionName="incumbent"
   solutionIndex="-1"
   objectiveValue="63.279961586322244"
   solutionTypeValue="3"
   solutionTypeString="primal"
   solutionStatusValue="101"
   solutionStatusString="integer optimal solution"
   solutionMethodString="mip"
   primalFeasible="1"
   dualFeasible="1"
   MIPNodes="0"
   MIPIterations="22"
   writeLevel="1"/>
 <quality
   epInt="1.0000000000000001e-05"
   epRHS="9.9999999999999995e-07"
   maxIntInfeas="0"
   maxPrimalInfeas="0"
   maxX="1"
   maxSlack="0"/>
 <linearConstraints>
  <constraint name="degree(1)" index="0" slack="0"/>
  <constraint name="degree(2)" index="1" slack="0"/>
  <constraint name="degree(3)" index="2" slack="0"/>
  <constraint name="degree(4)" index="3" slack="0"/>
  <constraint name="degree(5)" index="4" slack="0"/>
  <constraint name="degree(6)" index="5" slack="0"/>
  <constraint name="degree(7)" index="6" slack="0"/>
  <constraint name="degree(8)" index="7" slack="0"/>
  <constraint name="degree(9)" index="8" slack="0"/>
  <constraint name="degree(10)" index="9" slack="0"/>
  <constraint name="degree(11)" index="10" slack="0"/>
  <constraint name="degree(12)" index="11" slack="0"/>
  <constraint name="degree(13)" index="12" slack="0"/>
  <constraint name="degree(14)" index="13" slack="0"/>
  <constraint name="degree(15)" index="14" slack="0"/>
 </linearConstraints>
 <variables>
  <variable name="x(1,2)" index="0" value="0"/>
  <variable name="x(1,3)" index="1" value="1"/>
  <variable name="x(1,4)" index="2" value="0"/>
  <variable name="x(1,5)" index="3" value="-0"/>
  <variable name="x(1,6)" index="4" value="-0"/>
  <variable name="x(1,7)" index="5" value="-0"/>
  <variable name="x(1,8)" index="6" value="1"/>
  <variable name="x(1,9)" index="7" value="-0"/>
  <variable name="x(1,10)" index="8" value="-0"/>
  <variable name="x(1,11)" index="9" value="-0"/>
  <variable name="x(1,12)" index="10" value="-0"/>
  <variable name="x(1,13)" index="11" value="-0"/>
  <variable name="x(1,14)" index="12" value="-0"/>
  <variable name="x(1,15)" index="13" value="-0"/>
  <variable name="x(2,3)" index="14" value="1"/>
  <variable name="x(2,4)" index="15" value="1"/>
  <variable name="x(2,5)" index="16" value="-0"/>
  <variable name="x(2,6)" index="17" value="-0"/>
  <variable name="x(2,7)" index="18" value="-0"/>
  <variable name="x(2,8)" index="19" value="0"/>
  <variable name="x(2,9)" index="20" value="-0"/>
  <variable name="x(2,10)" index="21" value="-0"/>
  <variable name="x(2,11)" index="22" value="-0"/>
  <variable name="x(2,12)" index="23" value="-0"/>
  <variable name="x(2,13)" index="24" value="-0"/>
  <variable name="x(2,14)" index="25" value="-0"/>
  <variable name="x(2,15)" index="26" value="-0"/>
  <variable name="x(3,4)" index="27" value="-0"/>
  <variable name="x(3,5)" index="28" value="-0"/>
  <variable name="x(3,6)" index="29" value="-0"/>
  <variable name="x(3,7)" index="30" value="-0"/>
  <variable name="x(3,8)" index="31" value="-0"/>
  <variable name="x(3,9)" index="32" value="-0"/>
  <variable name="x(3,10)" index="33" value="-0"/>
  <variable name="x(3,11)" index="34" value="-0"/>
  <variable name="x(3,12)" index="35" value="-0"/>
  <variable name="x(3,13)" index="36" value="-0"/>
  <variable name="x(3,14)" index="37" value="-0"/>
  <variable name="x(3,15)" index="38" value="-0"/>
  <variable name="x(4,5)" index="39" value="-0"/>
  <variable name="x(4,6)" index="40" value="-0"/>
  <variable name="x(4,7)" index="41" value="-0"/>
  <variable name="x(4,8)" index="42" value="1"/>
  <variable name="x(4,9)" index="43" value="-0"/>
  <variable name="x(4,10)" index="44" value="-0"/>
  <variable name="x(4,11)" index="45" value="-0"/>
  <variable name="x(4,12)" index="46" value="-0"/>
  <variable name="x(4,13)" index="47" value="-0"/>
  <variable name="x(4,14)" index="48" value="-0"/>
  <variable name="x(4,15)" index="49" value="-0"/>
  <variable name="x(5,6)" index="50" value="0"/>
  <variable name="x(5,7)" index="51" value="-0"/>
  <variable name="x(5,8)" index="52" value="-0"/>
  <variable name="x(5,9)" index="53" value="-0"/>
  <variable name="x(5,10)" index="54" value="-0"/>
  <variable name="x(5,11)" index="55" value="1"/>
  <variable name="x(5,12)" index="56" value="-0"/>
  <variable name="x(5,13)" index="57" value="-0"/>
  <variable name="x(5,14)" index="58" value="-0"/>
  <variable name="x(5,15)" index="59" value="1"/>
  <variable name="x(6,7)" index="60" value="1"/>
  <variable name="x(6,8)" index="61" value="-0"/>
  <variable name="x(6,9)" index="62" value="-0"/>
  <variable name="x(6,10)" index="63" value="-0"/>
  <variable name="x(6,11)" index="64" value="-0"/>
  <variable name="x(6,12)" index="65" value="-0"/>
  <variable name="x(6,13)" index="66" value="-0"/>
  <variable name="x(6,14)" index="67" value="-0"/>
  <variable name="x(6,15)" index="68" value="1"/>
  <variable name="x(7,8)" index="69" value="-0"/>
  <variable name="x(7,9)" index="70" value="-0"/>
  <variable name="x(7,10)" index="71" value="1"/>
  <variable name="x(7,11)" index="72" value="-0"/>
  <variable name="x(7,12)" index="73" value="0"/>
  <variable name="x(7,13)" index="74" value="-0"/>
  <variable name="x(7,14)" index="75" value="-0"/>
  <variable name="x(7,15)" index="76" value="0"/>
  <variable name="x(8,9)" index="77" value="-0"/>
  <variable name="x(8,10)" index="78" value="-0"/>
  <variable name="x(8,11)" index="79" value="-0"/>
  <variable name="x(8,12)" index="80" value="-0"/>
  <variable name="x(8,13)" index="81" value="-0"/>
  <variable name="x(8,14)" index="82" value="-0"/>
  <variable name="x(8,15)" index="83" value="-0"/>
  <variable name="x(9,10)" index="84" value="1"/>
  <variable name="x(9,11)" index="85" value="1"/>
  <variable name="x(9,12)" index="86" value="-0"/>
  <variable name="x(9,13)" index="87" value="-0"/>
  <variable name="x(9,14)" index="88" value="-0"/>
  <variable name="x(9,15)" index="89" value="-0"/>
  <variable name="x(10,11)" index="90" value="-0"/>
  <variable name="x(10,12)" index="91" value="-0"/>
  <variable name="x(10,13)" index="92" value="-0"/>
  <variable name="x(10,14)" index="93" value="-0"/>
  <variable name="x(10,15)" index="94" value="-0"/>
  <variable name="x(11,12)" index="95" value="-0"/>
  <variable name="x(11,13)" index="96" value="-0"/>
  <variable name="x(11,14)" index="97" value="-0"/>
  <variable name="x(11,15)" index="98" value="-0"/>
  <variable name="x(12,13)" index="99" value="1"/>
  <variable name="x(12,14)" index="100" value="1"/>
  <variable name="x(12,15)" index="101" value="0"/>
  <variable name="x(13,14)" index="102" value="1"/>
  <variable name="x(13,15)" index="103" value="0"/>
  <variable name="x(14,15)" index="104" value="0"/>
 </variables>
 <objectiveValues>
  <objective index="0" name="" value="63.279961586322251"/>
 </objectiveValues>
</CPLEXSolution>
